Traveling Salesman Problem/TSP_generados/Aleatorio1620390850_5.tsp
NAME: Aleatorio1620390850_5.tsp
COMMENT: Randomly generated scenario
TYPE: TSP
DIMENSION: 5
EDGE_WEIGHT_TYPE: ATT
NODE_COORD_SECTION
1 29.25 21.91
2 13.49 25.68
3 38.77 40.05
4 44.97 18.93
5 4.63 3.44
