Traveling Salesman Problem/TSP_generados/Aleatorio1620390850_5.opt.tour
NAME: Aleatorio1620390850_5.opt.tour
COMMENT: Optimal solution for Aleatorio1620390850_5 (121.80784007227543)
TYPE: TOUR
DIMENSION: 5
TOUR_SECTION
1 4 3 2 5
-1
EOF
